c FILE: I13.clq
c
c SOURCE: Manually created by Breno Viana
c
c Graph Stats
c number of vertices  : 30
c number of edges     : 70
p col 30 70
e 1 2
e 1 16
e 2 3
e 3 4
e 4 5
e 4 6
e 5 6
e 6 7
e 7 8
e 8 9
e 9 10
e 10 11
e 10 12
e 10 13
e 11 12
e 11 13
e 12 13
e 13 14
e 13 15
e 14 15
e 14 20
e 15 16
e 15 17
e 15 27
e 15 28
e 16 17
e 16 27
e 16 28
e 17 27
e 17 28
e 18 19
e 18 20
e 18 21
e 18 22
e 19 20
e 19 21
e 19 22
e 20 21
e 20 22
e 21 22
e 22 29
e 22 30
e 23 24
e 23 25
e 23 26
e 23 27
e 23 28
e 23 29
e 23 30
e 24 25
e 24 26
e 24 27
e 24 28
e 24 29
e 24 30
e 25 26
e 25 27
e 25 28
e 25 29
e 25 30
e 26 27
e 26 28
e 26 29
e 26 30
e 27 28
e 27 29
e 27 30
e 28 29
e 28 30
e 29 30
